(set-logic QF_LRA)
(declare-fun X0 () Real )
(declare-fun Y0 () Real )
(declare-fun X1 () Real )
(declare-fun Y1 () Real )
(declare-fun X2 () Real )
(declare-fun Y2 () Real )
(declare-fun X3 () Real )
(declare-fun Y3 () Real )
(declare-fun X4 () Real )
(declare-fun Y4 () Real )
(declare-fun X5 () Real )
(declare-fun Y5 () Real )
(declare-fun Z () Real )
(assert ( and  
( or ( <= ( + X0 72 ) X1 )  ( <= ( + X1 59 ) X0 )  ( <= ( + Y0 53 ) Y1 )  ( <= ( + Y1 62 ) Y0 )  )
( or ( <= ( + X0 72 ) X2 )  ( <= ( + X2 11 ) X0 )  ( <= ( + Y0 53 ) Y2 )  ( <= ( + Y2 68 ) Y0 )  )
( or ( <= ( + X0 72 ) X3 )  ( <= ( + X3 31 ) X0 )  ( <= ( + Y0 53 ) Y3 )  ( <= ( + Y3 48 ) Y0 )  )
( or ( <= ( + X0 72 ) X4 )  ( <= ( + X4 87 ) X0 )  ( <= ( + Y0 53 ) Y4 )  ( <= ( + Y4 86 ) Y0 )  )
( or ( <= ( + X0 72 ) X5 )  ( <= ( + X5 97 ) X0 )  ( <= ( + Y0 53 ) Y5 )  ( <= ( + Y5 7 ) Y0 )  )
( or ( <= ( + X1 59 ) X2 )  ( <= ( + X2 11 ) X1 )  ( <= ( + Y1 62 ) Y2 )  ( <= ( + Y2 68 ) Y1 )  )
( or ( <= ( + X1 59 ) X3 )  ( <= ( + X3 31 ) X1 )  ( <= ( + Y1 62 ) Y3 )  ( <= ( + Y3 48 ) Y1 )  )
( or ( <= ( + X1 59 ) X4 )  ( <= ( + X4 87 ) X1 )  ( <= ( + Y1 62 ) Y4 )  ( <= ( + Y4 86 ) Y1 )  )
( or ( <= ( + X1 59 ) X5 )  ( <= ( + X5 97 ) X1 )  ( <= ( + Y1 62 ) Y5 )  ( <= ( + Y5 7 ) Y1 )  )
( or ( <= ( + X2 11 ) X3 )  ( <= ( + X3 31 ) X2 )  ( <= ( + Y2 68 ) Y3 )  ( <= ( + Y3 48 ) Y2 )  )
( or ( <= ( + X2 11 ) X4 )  ( <= ( + X4 87 ) X2 )  ( <= ( + Y2 68 ) Y4 )  ( <= ( + Y4 86 ) Y2 )  )
( or ( <= ( + X2 11 ) X5 )  ( <= ( + X5 97 ) X2 )  ( <= ( + Y2 68 ) Y5 )  ( <= ( + Y5 7 ) Y2 )  )
( or ( <= ( + X3 31 ) X4 )  ( <= ( + X4 87 ) X3 )  ( <= ( + Y3 48 ) Y4 )  ( <= ( + Y4 86 ) Y3 )  )
( or ( <= ( + X3 31 ) X5 )  ( <= ( + X5 97 ) X3 )  ( <= ( + Y3 48 ) Y5 )  ( <= ( + Y5 7 ) Y3 )  )
( or ( <= ( + X4 87 ) X5 )  ( <= ( + X5 97 ) X4 )  ( <= ( + Y4 86 ) Y5 )  ( <= ( + Y5 7 ) Y4 )  )
( >= X0 0)
( <= ( + X0 72) Z)
( >= Y0 0)
( <= ( + Y0 53 ) 122)
( >= X1 0)
( <= ( + X1 59) Z)
( >= Y1 0)
( <= ( + Y1 62 ) 122)
( >= X2 0)
( <= ( + X2 11) Z)
( >= Y2 0)
( <= ( + Y2 68 ) 122)
( >= X3 0)
( <= ( + X3 31) Z)
( >= Y3 0)
( <= ( + Y3 48 ) 122)
( >= X4 0)
( <= ( + X4 87) Z)
( >= Y4 0)
( <= ( + Y4 86 ) 122)
( >= X5 0)
( <= ( + X5 97) Z)
( >= Y5 0)
( <= ( + Y5 7 ) 122)
) )
(minimize Z)
(check-sat)
